 2021  4 5 1739  4.7 L  27.232  88.765  5.8  TES 15 1.2                        1
 GAP=194        3.23       3.1     6.1  4.5 -0.5995E+01  0.6273E+00  0.9962E+00E
 ACTION:REG 25-09-18 15:14 OP:INSK STATUS:               ID:20210405173724     I
 2021-04-05-1737-24M.INSK__045                                                 6
 STAT SP IPHASW D HRMM SECON CODA AMPLIT PERI AZIMU VELO AIN AR TRES W  DIS CAZ7
 SK02 BZ IP     C 1739 10.69                             105    1.3810 24.5 195 
 SK08 BZ IP     D 1739 11.63                              98   -1.2210 44.4 266 
 SK18 BZ EP     D 1739 12.63                              98   -0.7910 47.5 319 
 SK03 BZ IP     C 1739 11.19                              58   -2.2910 48.0 198 
 SK05 BZ IP     C 1739 12.81                              58   -1.52 0 52.6 248 
 SK17 BZ IP     C 1739 16.93                              58    0.2010 67.8 262 
 SK04 BZ IP     C 1739 23.26                              58    6.28 0 69.7 247 
                   
